c User generated cnf file
p cnf 15 33
5 -3 2 0 
-1 4 3 0 
2 5 -3 0 
12 -9 5 0 
-10 7 13 0 
1 -15 9 0 
3 12 -1 0 
-12 5 8 0 
4 -4 5 0 
-13 9 8 0 
9 6 -6 0 
-7 11 6 0 
-4 5 11 0 
1 -1 8 0 
15 2 -4 0 
14 -8 12 0 
3 -14 10 0 
1 -11 1 0 
2 8 -5 0 
9 8 -7 0 
7 -13 3 0 
7 5 -7 0 
-5 15 1 0 
-11 7 6 0 
14 -11 15 0 
6 4 -4 0 
5 -8 15 0 
-4 9 1 0 
-6 3 11 0 
-11 12 8 0 
10 3 -5 0 
12 -10 10 0 
11 -14 7 0 
